Problem:    Forno
Rows:       18
Columns:    4
Non-zeros:  36
Status:     OPTIMAL
Objective:  z = 57.875 (MAXimum)

   No.   Row name   St   Activity     Lower bound   Upper bound    Marginal
------ ------------ -- ------------- ------------- ------------- -------------
     1 produzione_minima[1]
                    NL             5             5                   -0.714286 
     2 produzione_minima[2]
                    B        5.83333             2               
     3 produzione_minima[3]
                    NL             3             3                    -5.23214 
     4 produzione_minima[4]
                    B        2.91667             2               
     5 Double[1,2]  B       -6.66667                          -0 
     6 Double[1,3]  B             -1                          -0 
     7 Double[1,4]  B      -0.833333                          -0 
     8 Double[2,1]  B       -4.16667                          -0 
     9 Double[2,3]  B      -0.166667                          -0 
    10 Double[2,4]  NU             0                          -0       2.07143 
    11 Double[3,1]  B             -7                          -0 
    12 Double[3,2]  B       -8.66667                          -0 
    13 Double[3,4]  B       -2.83333                          -0 
    14 Double[4,1]  B       -7.08333                          -0 
    15 Double[4,2]  B          -8.75                          -0 
    16 Double[4,3]  B       -3.08333                          -0 
    17 Limit        NU            24                          24       3.21429 
    18 z            B         57.875                             

   No. Column name  St   Activity     Lower bound   Upper bound    Marginal
------ ------------ -- ------------- ------------- ------------- -------------
     1 x[1]         B              5             0               
     2 x[2]         B        5.83333             0               
     3 x[3]         B              3             0               
     4 x[4]         B        2.91667             0               

Karush-Kuhn-Tucker optimality conditions:

KKT.PE: max.abs.err = 0.00e+000 on row 0
        max.rel.err = 0.00e+000 on row 0
        High quality

KKT.PB: max.abs.err = 0.00e+000 on row 0
        max.rel.err = 0.00e+000 on row 0
        High quality

KKT.DE: max.abs.err = 0.00e+000 on column 0
        max.rel.err = 0.00e+000 on column 0
        High quality

KKT.DB: max.abs.err = 0.00e+000 on row 0
        max.rel.err = 0.00e+000 on row 0
        High quality

End of output
